VRPModelTW.lp
\ Model VRPmodel_multiTW
\ LP format - for model browsing. Use MPS format to capture full model detail.
Minimize
  27 X_0,1,0 + 27 X_0,1,1 + 20 X_0,2,0 + 20 X_0,2,1 + 29 X_0,3,0
   + 29 X_0,3,1 + 25 X_0,4,0 + 25 X_0,4,1 + 15 X_0,5,0 + 15 X_0,5,1
   + 25 X_0,6,0 + 25 X_0,6,1 + 26 X_0,7,0 + 26 X_0,7,1 + 11 X_0,8,0
   + 11 X_0,8,1 + 27 X_1,0,0 + 27 X_1,0,1 + 8 X_1,2,0 + 8 X_1,2,1
   + 11 X_1,3,0 + 11 X_1,3,1 + 12 X_1,4,0 + 12 X_1,4,1 + 14 X_1,5,0
   + 14 X_1,5,1 + 48 X_1,6,0 + 48 X_1,6,1 + 7 X_1,7,0 + 7 X_1,7,1
   + 23 X_1,8,0 + 23 X_1,8,1 + 27 X_1,9,0 + 27 X_1,9,1 + 20 X_2,0,0
   + 20 X_2,0,1 + 8 X_2,1,0 + 8 X_2,1,1 + 17 X_2,3,0 + 17 X_2,3,1
   + 15 X_2,4,0 + 15 X_2,4,1 + 5 X_2,5,0 + 5 X_2,5,1 + 40 X_2,6,0
   + 40 X_2,6,1 + 13 X_2,7,0 + 13 X_2,7,1 + 14 X_2,8,0 + 14 X_2,8,1
   + 20 X_2,9,0 + 20 X_2,9,1 + 29 X_3,0,0 + 29 X_3,0,1 + 11 X_3,1,0
   + 11 X_3,1,1 + 17 X_3,2,0 + 17 X_3,2,1 + 3 X_3,4,0 + 3 X_3,4,1
   + 20 X_3,5,0 + 20 X_3,5,1 + 53 X_3,6,0 + 53 X_3,6,1 + 4 X_3,7,0
   + 4 X_3,7,1 + 29 X_3,8,0 + 29 X_3,8,1 + 29 X_3,9,0 + 29 X_3,9,1
   + 25 X_4,0,0 + 25 X_4,0,1 + 12 X_4,1,0 + 12 X_4,1,1 + 15 X_4,2,0
   + 15 X_4,2,1 + 3 X_4,3,0 + 3 X_4,3,1 + 18 X_4,5,0 + 18 X_4,5,1
   + 50 X_4,6,0 + 50 X_4,6,1 + 4 X_4,7,0 + 4 X_4,7,1 + 26 X_4,8,0
   + 26 X_4,8,1 + 25 X_4,9,0 + 25 X_4,9,1 + 15 X_5,0,0 + 15 X_5,0,1
   + 14 X_5,1,0 + 14 X_5,1,1 + 5 X_5,2,0 + 5 X_5,2,1 + 20 X_5,3,0
   + 20 X_5,3,1 + 18 X_5,4,0 + 18 X_5,4,1 + 34 X_5,6,0 + 34 X_5,6,1
   + 16 X_5,7,0 + 16 X_5,7,1 + 9 X_5,8,0 + 9 X_5,8,1 + 15 X_5,9,0
   + 15 X_5,9,1 + 25 X_6,0,0 + 25 X_6,0,1 + 48 X_6,1,0 + 48 X_6,1,1
   + 40 X_6,2,0 + 40 X_6,2,1 + 53 X_6,3,0 + 53 X_6,3,1 + 50 X_6,4,0
   + 50 X_6,4,1 + 34 X_6,5,0 + 34 X_6,5,1 + 50 X_6,7,0 + 50 X_6,7,1
   + 25 X_6,8,0 + 25 X_6,8,1 + 25 X_6,9,0 + 25 X_6,9,1 + 26 X_7,0,0
   + 26 X_7,0,1 + 7 X_7,1,0 + 7 X_7,1,1 + 13 X_7,2,0 + 13 X_7,2,1
   + 4 X_7,3,0 + 4 X_7,3,1 + 4 X_7,4,0 + 4 X_7,4,1 + 16 X_7,5,0
   + 16 X_7,5,1 + 50 X_7,6,0 + 50 X_7,6,1 + 26 X_7,8,0 + 26 X_7,8,1
   + 26 X_7,9,0 + 26 X_7,9,1 + 11 X_8,0,0 + 11 X_8,0,1 + 23 X_8,1,0
   + 23 X_8,1,1 + 14 X_8,2,0 + 14 X_8,2,1 + 29 X_8,3,0 + 29 X_8,3,1
   + 26 X_8,4,0 + 26 X_8,4,1 + 9 X_8,5,0 + 9 X_8,5,1 + 25 X_8,6,0
   + 25 X_8,6,1 + 26 X_8,7,0 + 26 X_8,7,1 + 11 X_8,9,0 + 11 X_8,9,1
   + 27 X_9,1,0 + 27 X_9,1,1 + 20 X_9,2,0 + 20 X_9,2,1 + 29 X_9,3,0
   + 29 X_9,3,1 + 25 X_9,4,0 + 25 X_9,4,1 + 15 X_9,5,0 + 15 X_9,5,1
   + 25 X_9,6,0 + 25 X_9,6,1 + 26 X_9,7,0 + 26 X_9,7,1 + 11 X_9,8,0
   + 11 X_9,8,1
Subject To
 R0: Y_1,0,0 + Y_1,0,1 + Y_1,1,0 + Y_1,1,1 + Y_1,2,0 + Y_1,2,1 = 1
 R1: Y_2,0,0 + Y_2,0,1 + Y_2,1,0 + Y_2,1,1 + Y_2,2,0 + Y_2,2,1 = 1
 R2: Y_3,0,0 + Y_3,0,1 + Y_3,1,0 + Y_3,1,1 + Y_3,2,0 + Y_3,2,1 = 1
 R3: Y_4,0,0 + Y_4,0,1 + Y_4,1,0 + Y_4,1,1 + Y_4,2,0 + Y_4,2,1 = 1
 R4: Y_5,0,0 + Y_5,0,1 + Y_5,1,0 + Y_5,1,1 + Y_5,2,0 + Y_5,2,1 = 1
 R5: Y_6,0,0 + Y_6,0,1 + Y_6,1,0 + Y_6,1,1 + Y_6,2,0 + Y_6,2,1 = 1
 R6: Y_7,0,0 + Y_7,0,1 + Y_7,1,0 + Y_7,1,1 + Y_7,2,0 + Y_7,2,1 = 1
 R7: Y_8,0,0 + Y_8,0,1 + Y_8,1,0 + Y_8,1,1 + Y_8,2,0 + Y_8,2,1 = 1
 R8: Z_1,0 - Y_1,0,0 - Y_1,1,0 - Y_1,2,0 = 0
 R9: Z_1,1 - Y_1,0,1 - Y_1,1,1 - Y_1,2,1 = 0
 R10: Z_2,0 - Y_2,0,0 - Y_2,1,0 - Y_2,2,0 = 0
 R11: Z_2,1 - Y_2,0,1 - Y_2,1,1 - Y_2,2,1 = 0
 R12: Z_3,0 - Y_3,0,0 - Y_3,1,0 - Y_3,2,0 = 0
 R13: Z_3,1 - Y_3,0,1 - Y_3,1,1 - Y_3,2,1 = 0
 R14: Z_4,0 - Y_4,0,0 - Y_4,1,0 - Y_4,2,0 = 0
 R15: Z_4,1 - Y_4,0,1 - Y_4,1,1 - Y_4,2,1 = 0
 R16: Z_5,0 - Y_5,0,0 - Y_5,1,0 - Y_5,2,0 = 0
 R17: Z_5,1 - Y_5,0,1 - Y_5,1,1 - Y_5,2,1 = 0
 R18: Z_6,0 - Y_6,0,0 - Y_6,1,0 - Y_6,2,0 = 0
 R19: Z_6,1 - Y_6,0,1 - Y_6,1,1 - Y_6,2,1 = 0
 R20: Z_7,0 - Y_7,0,0 - Y_7,1,0 - Y_7,2,0 = 0
 R21: Z_7,1 - Y_7,0,1 - Y_7,1,1 - Y_7,2,1 = 0
 R22: Z_8,0 - Y_8,0,0 - Y_8,1,0 - Y_8,2,0 = 0
 R23: Z_8,1 - Y_8,0,1 - Y_8,1,1 - Y_8,2,1 = 0
 VisitDepot_0: Z_0,0 + Z_0,1 = 2
 VisitDepot2_0: Z_9,0 + Z_9,1 = 2
 ArcIn_9,0: X_0,1,0 - X_1,0,0 - X_1,2,0 - X_1,3,0 - X_1,4,0 - X_1,5,0
   - X_1,6,0 - X_1,7,0 - X_1,8,0 - X_1,9,0 + X_2,1,0 + X_3,1,0 + X_4,1,0
   + X_5,1,0 + X_6,1,0 + X_7,1,0 + X_8,1,0 + X_9,1,0 = 0
 ArcIn_9,1: X_0,1,1 - X_1,0,1 - X_1,2,1 - X_1,3,1 - X_1,4,1 - X_1,5,1
   - X_1,6,1 - X_1,7,1 - X_1,8,1 - X_1,9,1 + X_2,1,1 + X_3,1,1 + X_4,1,1
   + X_5,1,1 + X_6,1,1 + X_7,1,1 + X_8,1,1 + X_9,1,1 = 0
 ArcIn_9,0: X_0,2,0 + X_1,2,0 - X_2,0,0 - X_2,1,0 - X_2,3,0 - X_2,4,0
   - X_2,5,0 - X_2,6,0 - X_2,7,0 - X_2,8,0 - X_2,9,0 + X_3,2,0 + X_4,2,0
   + X_5,2,0 + X_6,2,0 + X_7,2,0 + X_8,2,0 + X_9,2,0 = 0
 ArcIn_9,1: X_0,2,1 + X_1,2,1 - X_2,0,1 - X_2,1,1 - X_2,3,1 - X_2,4,1
   - X_2,5,1 - X_2,6,1 - X_2,7,1 - X_2,8,1 - X_2,9,1 + X_3,2,1 + X_4,2,1
   + X_5,2,1 + X_6,2,1 + X_7,2,1 + X_8,2,1 + X_9,2,1 = 0
 ArcIn_9,0: X_0,3,0 + X_1,3,0 + X_2,3,0 - X_3,0,0 - X_3,1,0 - X_3,2,0
   - X_3,4,0 - X_3,5,0 - X_3,6,0 - X_3,7,0 - X_3,8,0 - X_3,9,0 + X_4,3,0
   + X_5,3,0 + X_6,3,0 + X_7,3,0 + X_8,3,0 + X_9,3,0 = 0
 ArcIn_9,1: X_0,3,1 + X_1,3,1 + X_2,3,1 - X_3,0,1 - X_3,1,1 - X_3,2,1
   - X_3,4,1 - X_3,5,1 - X_3,6,1 - X_3,7,1 - X_3,8,1 - X_3,9,1 + X_4,3,1
   + X_5,3,1 + X_6,3,1 + X_7,3,1 + X_8,3,1 + X_9,3,1 = 0
 ArcIn_9,0: X_0,4,0 + X_1,4,0 + X_2,4,0 + X_3,4,0 - X_4,0,0 - X_4,1,0
   - X_4,2,0 - X_4,3,0 - X_4,5,0 - X_4,6,0 - X_4,7,0 - X_4,8,0 - X_4,9,0
   + X_5,4,0 + X_6,4,0 + X_7,4,0 + X_8,4,0 + X_9,4,0 = 0
 ArcIn_9,1: X_0,4,1 + X_1,4,1 + X_2,4,1 + X_3,4,1 - X_4,0,1 - X_4,1,1
   - X_4,2,1 - X_4,3,1 - X_4,5,1 - X_4,6,1 - X_4,7,1 - X_4,8,1 - X_4,9,1
   + X_5,4,1 + X_6,4,1 + X_7,4,1 + X_8,4,1 + X_9,4,1 = 0
 ArcIn_9,0: X_0,5,0 + X_1,5,0 + X_2,5,0 + X_3,5,0 + X_4,5,0 - X_5,0,0
   - X_5,1,0 - X_5,2,0 - X_5,3,0 - X_5,4,0 - X_5,6,0 - X_5,7,0 - X_5,8,0
   - X_5,9,0 + X_6,5,0 + X_7,5,0 + X_8,5,0 + X_9,5,0 = 0
 ArcIn_9,1: X_0,5,1 + X_1,5,1 + X_2,5,1 + X_3,5,1 + X_4,5,1 - X_5,0,1
   - X_5,1,1 - X_5,2,1 - X_5,3,1 - X_5,4,1 - X_5,6,1 - X_5,7,1 - X_5,8,1
   - X_5,9,1 + X_6,5,1 + X_7,5,1 + X_8,5,1 + X_9,5,1 = 0
 ArcIn_9,0: X_0,6,0 + X_1,6,0 + X_2,6,0 + X_3,6,0 + X_4,6,0 + X_5,6,0
   - X_6,0,0 - X_6,1,0 - X_6,2,0 - X_6,3,0 - X_6,4,0 - X_6,5,0 - X_6,7,0
   - X_6,8,0 - X_6,9,0 + X_7,6,0 + X_8,6,0 + X_9,6,0 = 0
 ArcIn_9,1: X_0,6,1 + X_1,6,1 + X_2,6,1 + X_3,6,1 + X_4,6,1 + X_5,6,1
   - X_6,0,1 - X_6,1,1 - X_6,2,1 - X_6,3,1 - X_6,4,1 - X_6,5,1 - X_6,7,1
   - X_6,8,1 - X_6,9,1 + X_7,6,1 + X_8,6,1 + X_9,6,1 = 0
 ArcIn_9,0: X_0,7,0 + X_1,7,0 + X_2,7,0 + X_3,7,0 + X_4,7,0 + X_5,7,0
   + X_6,7,0 - X_7,0,0 - X_7,1,0 - X_7,2,0 - X_7,3,0 - X_7,4,0 - X_7,5,0
   - X_7,6,0 - X_7,8,0 - X_7,9,0 + X_8,7,0 + X_9,7,0 = 0
 ArcIn_9,1: X_0,7,1 + X_1,7,1 + X_2,7,1 + X_3,7,1 + X_4,7,1 + X_5,7,1
   + X_6,7,1 - X_7,0,1 - X_7,1,1 - X_7,2,1 - X_7,3,1 - X_7,4,1 - X_7,5,1
   - X_7,6,1 - X_7,8,1 - X_7,9,1 + X_8,7,1 + X_9,7,1 = 0
 ArcIn_9,0: X_0,8,0 + X_1,8,0 + X_2,8,0 + X_3,8,0 + X_4,8,0 + X_5,8,0
   + X_6,8,0 + X_7,8,0 - X_8,0,0 - X_8,1,0 - X_8,2,0 - X_8,3,0 - X_8,4,0
   - X_8,5,0 - X_8,6,0 - X_8,7,0 - X_8,9,0 + X_9,8,0 = 0
 ArcIn_9,1: X_0,8,1 + X_1,8,1 + X_2,8,1 + X_3,8,1 + X_4,8,1 + X_5,8,1
   + X_6,8,1 + X_7,8,1 - X_8,0,1 - X_8,1,1 - X_8,2,1 - X_8,3,1 - X_8,4,1
   - X_8,5,1 - X_8,6,1 - X_8,7,1 - X_8,9,1 + X_9,8,1 = 0
 ArcOut_9,0: X_0,0,0 + X_1,0,0 + X_2,0,0 + X_3,0,0 + X_4,0,0 + X_5,0,0
   + X_6,0,0 + X_7,0,0 + X_8,0,0 + X_9,0,0 - Z_0,0 = 0
 ArcOut_9,1: X_0,0,1 + X_1,0,1 + X_2,0,1 + X_3,0,1 + X_4,0,1 + X_5,0,1
   + X_6,0,1 + X_7,0,1 + X_8,0,1 + X_9,0,1 - Z_0,1 = 0
 ArcOut_9,0: X_0,1,0 + X_1,1,0 + X_2,1,0 + X_3,1,0 + X_4,1,0 + X_5,1,0
   + X_6,1,0 + X_7,1,0 + X_8,1,0 + X_9,1,0 - Z_1,0 = 0
 ArcOut_9,1: X_0,1,1 + X_1,1,1 + X_2,1,1 + X_3,1,1 + X_4,1,1 + X_5,1,1
   + X_6,1,1 + X_7,1,1 + X_8,1,1 + X_9,1,1 - Z_1,1 = 0
 ArcOut_9,0: X_0,2,0 + X_1,2,0 + X_2,2,0 + X_3,2,0 + X_4,2,0 + X_5,2,0
   + X_6,2,0 + X_7,2,0 + X_8,2,0 + X_9,2,0 - Z_2,0 = 0
 ArcOut_9,1: X_0,2,1 + X_1,2,1 + X_2,2,1 + X_3,2,1 + X_4,2,1 + X_5,2,1
   + X_6,2,1 + X_7,2,1 + X_8,2,1 + X_9,2,1 - Z_2,1 = 0
 ArcOut_9,0: X_0,3,0 + X_1,3,0 + X_2,3,0 + X_3,3,0 + X_4,3,0 + X_5,3,0
   + X_6,3,0 + X_7,3,0 + X_8,3,0 + X_9,3,0 - Z_3,0 = 0
 ArcOut_9,1: X_0,3,1 + X_1,3,1 + X_2,3,1 + X_3,3,1 + X_4,3,1 + X_5,3,1
   + X_6,3,1 + X_7,3,1 + X_8,3,1 + X_9,3,1 - Z_3,1 = 0
 ArcOut_9,0: X_0,4,0 + X_1,4,0 + X_2,4,0 + X_3,4,0 + X_4,4,0 + X_5,4,0
   + X_6,4,0 + X_7,4,0 + X_8,4,0 + X_9,4,0 - Z_4,0 = 0
 ArcOut_9,1: X_0,4,1 + X_1,4,1 + X_2,4,1 + X_3,4,1 + X_4,4,1 + X_5,4,1
   + X_6,4,1 + X_7,4,1 + X_8,4,1 + X_9,4,1 - Z_4,1 = 0
 ArcOut_9,0: X_0,5,0 + X_1,5,0 + X_2,5,0 + X_3,5,0 + X_4,5,0 + X_5,5,0
   + X_6,5,0 + X_7,5,0 + X_8,5,0 + X_9,5,0 - Z_5,0 = 0
 ArcOut_9,1: X_0,5,1 + X_1,5,1 + X_2,5,1 + X_3,5,1 + X_4,5,1 + X_5,5,1
   + X_6,5,1 + X_7,5,1 + X_8,5,1 + X_9,5,1 - Z_5,1 = 0
 ArcOut_9,0: X_0,6,0 + X_1,6,0 + X_2,6,0 + X_3,6,0 + X_4,6,0 + X_5,6,0
   + X_6,6,0 + X_7,6,0 + X_8,6,0 + X_9,6,0 - Z_6,0 = 0
 ArcOut_9,1: X_0,6,1 + X_1,6,1 + X_2,6,1 + X_3,6,1 + X_4,6,1 + X_5,6,1
   + X_6,6,1 + X_7,6,1 + X_8,6,1 + X_9,6,1 - Z_6,1 = 0
 ArcOut_9,0: X_0,7,0 + X_1,7,0 + X_2,7,0 + X_3,7,0 + X_4,7,0 + X_5,7,0
   + X_6,7,0 + X_7,7,0 + X_8,7,0 + X_9,7,0 - Z_7,0 = 0
 ArcOut_9,1: X_0,7,1 + X_1,7,1 + X_2,7,1 + X_3,7,1 + X_4,7,1 + X_5,7,1
   + X_6,7,1 + X_7,7,1 + X_8,7,1 + X_9,7,1 - Z_7,1 = 0
 ArcOut_9,0: X_0,8,0 + X_1,8,0 + X_2,8,0 + X_3,8,0 + X_4,8,0 + X_5,8,0
   + X_6,8,0 + X_7,8,0 + X_8,8,0 + X_9,8,0 - Z_8,0 = 0
 ArcOut_9,1: X_0,8,1 + X_1,8,1 + X_2,8,1 + X_3,8,1 + X_4,8,1 + X_5,8,1
   + X_6,8,1 + X_7,8,1 + X_8,8,1 + X_9,8,1 - Z_8,1 = 0
 ArcOut_9,0: X_0,9,0 + X_1,9,0 + X_2,9,0 + X_3,9,0 + X_4,9,0 + X_5,9,0
   + X_6,9,0 + X_7,9,0 + X_8,9,0 + X_9,9,0 - Z_9,0 = 0
 ArcOut_9,1: X_0,9,1 + X_1,9,1 + X_2,9,1 + X_3,9,1 + X_4,9,1 + X_5,9,1
   + X_6,9,1 + X_7,9,1 + X_8,9,1 + X_9,9,1 - Z_9,1 = 0
 Capacity_0: 10 Z_1,0 + 30 Z_2,0 + 10 Z_3,0 + 10 Z_4,0 + 10 Z_5,0
   + 20 Z_6,0 + 20 Z_7,0 + 20 Z_8,0 <= 130
 Capacity_1: 10 Z_1,1 + 30 Z_2,1 + 10 Z_3,1 + 10 Z_4,1 + 10 Z_5,1
   + 20 Z_6,1 + 20 Z_7,1 + 20 Z_8,1 <= 130
 R64: - T_1,0 + 311 Y_1,0,0 <= 0
 R65: T_1,0 - 471 Y_1,0,0 <= 0
 R66: - T_1,1 + 311 Y_1,0,1 <= 0
 R67: T_1,1 - 471 Y_1,0,1 <= 0
 R68: - T_1,0 + 1011 Y_1,1,0 <= 0
 R69: T_1,0 - 1231 Y_1,1,0 <= 0
 R70: - T_1,1 + 1011 Y_1,1,1 <= 0
 R71: T_1,1 - 1231 Y_1,1,1 <= 0
 R72: - T_1,0 + 2700 Y_1,2,0 <= 0
 R73: T_1,0 - 3220 Y_1,2,0 <= 0
 R74: - T_1,1 + 2700 Y_1,2,1 <= 0
 R75: T_1,1 - 3220 Y_1,2,1 <= 0
 R76: - T_2,0 + 213 Y_2,0,0 <= 0
 R77: T_2,0 - 373 Y_2,0,0 <= 0
 R78: - T_2,1 + 213 Y_2,0,1 <= 0
 R79: T_2,1 - 373 Y_2,0,1 <= 0
 R80: - T_2,0 + 1053 Y_2,1,0 <= 0
 R81: T_2,0 - 1301 Y_2,1,0 <= 0
 R82: - T_2,1 + 1053 Y_2,1,1 <= 0
 R83: T_2,1 - 1301 Y_2,1,1 <= 0
 R84: - T_2,0 + 2654 Y_2,2,0 <= 0
 R85: T_2,0 - 2905 Y_2,2,0 <= 0
 R86: - T_2,1 + 2654 Y_2,2,1 <= 0
 R87: T_2,1 - 2905 Y_2,2,1 <= 0
 R88: - T_3,0 + 1167 Y_3,0,0 <= 0
 R89: T_3,0 - 1327 Y_3,0,0 <= 0
 R90: - T_3,1 + 1167 Y_3,0,1 <= 0
 R91: T_3,1 - 1327 Y_3,0,1 <= 0
 R92: - T_3,0 + 167 Y_3,1,0 <= 0
 R93: T_3,0 - 427 Y_3,1,0 <= 0
 R94: - T_3,1 + 167 Y_3,1,1 <= 0
 R95: T_3,1 - 427 Y_3,1,1 <= 0
 R96: - T_3,0 + 2677 Y_3,2,0 <= 0
 R97: T_3,0 - 2997 Y_3,2,0 <= 0
 R98: - T_3,1 + 2677 Y_3,2,1 <= 0
 R99: T_3,1 - 2997 Y_3,2,1 <= 0
 R100: - T_4,0 + 1261 Y_4,0,0 <= 0
 R101: T_4,0 - 1421 Y_4,0,0 <= 0
 R102: - T_4,1 + 1261 Y_4,0,1 <= 0
 R103: T_4,1 - 1421 Y_4,0,1 <= 0
 R104: - T_4,0 + 121 Y_4,1,0 <= 0
 R105: T_4,0 - 431 Y_4,1,0 <= 0
 R106: - T_4,1 + 121 Y_4,1,1 <= 0
 R107: T_4,1 - 431 Y_4,1,1 <= 0
 R108: - T_4,0 + 2791 Y_4,2,0 <= 0
 R109: T_4,0 - 2901 Y_4,2,0 <= 0
 R110: - T_4,1 + 2791 Y_4,2,1 <= 0
 R111: T_4,1 - 2901 Y_4,2,1 <= 0
 R112: - T_5,0 + 25 Y_5,0,0 <= 0
 R113: T_5,0 - 185 Y_5,0,0 <= 0
 R114: - T_5,1 + 25 Y_5,0,1 <= 0
 R115: T_5,1 - 185 Y_5,0,1 <= 0
 R116: - T_5,0 + 125 Y_5,1,0 <= 0
 R117: T_5,0 - 535 Y_5,1,0 <= 0
 R118: - T_5,1 + 125 Y_5,1,1 <= 0
 R119: T_5,1 - 535 Y_5,1,1 <= 0
 R120: - T_5,0 + 2755 Y_5,2,0 <= 0
 R121: T_5,0 - 3295 Y_5,2,0 <= 0
 R122: - T_5,1 + 2755 Y_5,2,1 <= 0
 R123: T_5,1 - 3295 Y_5,2,1 <= 0
 R124: - T_6,0 + 497 Y_6,0,0 <= 0
 R125: T_6,0 - 657 Y_6,0,0 <= 0
 R126: - T_6,1 + 497 Y_6,0,1 <= 0
 R127: T_6,1 - 657 Y_6,0,1 <= 0
 R128: - T_6,0 + 1127 Y_6,1,0 <= 0
 R129: T_6,0 - 1347 Y_6,1,0 <= 0
 R130: - T_6,1 + 1127 Y_6,1,1 <= 0
 R131: T_6,1 - 1347 Y_6,1,1 <= 0
 R132: - T_6,0 + 2627 Y_6,2,0 <= 0
 R133: T_6,0 - 2957 Y_6,2,0 <= 0
 R134: - T_6,1 + 2627 Y_6,2,1 <= 0
 R135: T_6,1 - 2957 Y_6,2,1 <= 0
 R136: - T_7,0 + 1073 Y_7,0,0 <= 0
 R137: T_7,0 - 1233 Y_7,0,0 <= 0
 R138: - T_7,1 + 1073 Y_7,0,1 <= 0
 R139: T_7,1 - 1233 Y_7,0,1 <= 0
 R140: - T_7,0 + 173 Y_7,1,0 <= 0
 R141: T_7,0 - 493 Y_7,1,0 <= 0
 R142: - T_7,1 + 173 Y_7,1,1 <= 0
 R143: T_7,1 - 493 Y_7,1,1 <= 0
 R144: - T_7,0 + 1100 Y_7,2,0 <= 0
 R145: T_7,0 - 1413 Y_7,2,0 <= 0
 R146: - T_7,1 + 1100 Y_7,2,1 <= 0
 R147: T_7,1 - 1413 Y_7,2,1 <= 0
 R148: - T_8,0 + 2887 Y_8,0,0 <= 0
 R149: T_8,0 - 3047 Y_8,0,0 <= 0
 R150: - T_8,1 + 2887 Y_8,0,1 <= 0
 R151: T_8,1 - 3047 Y_8,0,1 <= 0
 R152: - T_8,0 + 187 Y_8,1,0 <= 0
 R153: T_8,0 - 407 Y_8,1,0 <= 0
 R154: - T_8,1 + 187 Y_8,1,1 <= 0
 R155: T_8,1 - 407 Y_8,1,1 <= 0
 R156: - T_8,0 + 1017 Y_8,2,0 <= 0
 R157: T_8,0 - 1427 Y_8,2,0 <= 0
 R158: - T_8,1 + 1017 Y_8,2,1 <= 0
 R159: T_8,1 - 1427 Y_8,2,1 <= 0
 InTime_0,0,0: [ ] <= 0
 InTime_0,0,1: [ ] <= 0
 InTime_0,1,0: 27 X_0,1,0 + [ X_0,1,0 * T_0,0 - X_0,1,0 * T_1,0 ] <= 0
 InTime_0,1,1: 27 X_0,1,1 + [ X_0,1,1 * T_0,1 - X_0,1,1 * T_1,1 ] <= 0
 InTime_0,2,0: 20 X_0,2,0 + [ X_0,2,0 * T_0,0 - X_0,2,0 * T_2,0 ] <= 0
 InTime_0,2,1: 20 X_0,2,1 + [ X_0,2,1 * T_0,1 - X_0,2,1 * T_2,1 ] <= 0
 InTime_0,3,0: 29 X_0,3,0 + [ X_0,3,0 * T_0,0 - X_0,3,0 * T_3,0 ] <= 0
 InTime_0,3,1: 29 X_0,3,1 + [ X_0,3,1 * T_0,1 - X_0,3,1 * T_3,1 ] <= 0
 InTime_0,4,0: 25 X_0,4,0 + [ X_0,4,0 * T_0,0 - X_0,4,0 * T_4,0 ] <= 0
 InTime_0,4,1: 25 X_0,4,1 + [ X_0,4,1 * T_0,1 - X_0,4,1 * T_4,1 ] <= 0
 InTime_0,5,0: 15 X_0,5,0 + [ X_0,5,0 * T_0,0 - X_0,5,0 * T_5,0 ] <= 0
 InTime_0,5,1: 15 X_0,5,1 + [ X_0,5,1 * T_0,1 - X_0,5,1 * T_5,1 ] <= 0
 InTime_0,6,0: 25 X_0,6,0 + [ X_0,6,0 * T_0,0 - X_0,6,0 * T_6,0 ] <= 0
 InTime_0,6,1: 25 X_0,6,1 + [ X_0,6,1 * T_0,1 - X_0,6,1 * T_6,1 ] <= 0
 InTime_0,7,0: 26 X_0,7,0 + [ X_0,7,0 * T_0,0 - X_0,7,0 * T_7,0 ] <= 0
 InTime_0,7,1: 26 X_0,7,1 + [ X_0,7,1 * T_0,1 - X_0,7,1 * T_7,1 ] <= 0
 InTime_0,8,0: 11 X_0,8,0 + [ X_0,8,0 * T_0,0 - X_0,8,0 * T_8,0 ] <= 0
 InTime_0,8,1: 11 X_0,8,1 + [ X_0,8,1 * T_0,1 - X_0,8,1 * T_8,1 ] <= 0
 InTime_0,9,0: [ X_0,9,0 * T_0,0 - X_0,9,0 * T_9,0 ] <= 0
 InTime_0,9,1: [ X_0,9,1 * T_0,1 - X_0,9,1 * T_9,1 ] <= 0
 InTime_1,0,0: 117 X_1,0,0 + [ - X_1,0,0 * T_0,0 + X_1,0,0 * T_1,0 ] <= 0
 InTime_1,0,1: 117 X_1,0,1 + [ - X_1,0,1 * T_0,1 + X_1,0,1 * T_1,1 ] <= 0
 InTime_1,1,0: 90 X_1,1,0 + [ ] <= 0
 InTime_1,1,1: 90 X_1,1,1 + [ ] <= 0
 InTime_1,2,0: 98 X_1,2,0 + [ X_1,2,0 * T_1,0 - X_1,2,0 * T_2,0 ] <= 0
 InTime_1,2,1: 98 X_1,2,1 + [ X_1,2,1 * T_1,1 - X_1,2,1 * T_2,1 ] <= 0
 InTime_1,3,0: 101 X_1,3,0 + [ X_1,3,0 * T_1,0 - X_1,3,0 * T_3,0 ] <= 0
 InTime_1,3,1: 101 X_1,3,1 + [ X_1,3,1 * T_1,1 - X_1,3,1 * T_3,1 ] <= 0
 InTime_1,4,0: 102 X_1,4,0 + [ X_1,4,0 * T_1,0 - X_1,4,0 * T_4,0 ] <= 0
 InTime_1,4,1: 102 X_1,4,1 + [ X_1,4,1 * T_1,1 - X_1,4,1 * T_4,1 ] <= 0
 InTime_1,5,0: 104 X_1,5,0 + [ X_1,5,0 * T_1,0 - X_1,5,0 * T_5,0 ] <= 0
 InTime_1,5,1: 104 X_1,5,1 + [ X_1,5,1 * T_1,1 - X_1,5,1 * T_5,1 ] <= 0
 InTime_1,6,0: 138 X_1,6,0 + [ X_1,6,0 * T_1,0 - X_1,6,0 * T_6,0 ] <= 0
 InTime_1,6,1: 138 X_1,6,1 + [ X_1,6,1 * T_1,1 - X_1,6,1 * T_6,1 ] <= 0
 InTime_1,7,0: 97 X_1,7,0 + [ X_1,7,0 * T_1,0 - X_1,7,0 * T_7,0 ] <= 0
 InTime_1,7,1: 97 X_1,7,1 + [ X_1,7,1 * T_1,1 - X_1,7,1 * T_7,1 ] <= 0
 InTime_1,8,0: 113 X_1,8,0 + [ X_1,8,0 * T_1,0 - X_1,8,0 * T_8,0 ] <= 0
 InTime_1,8,1: 113 X_1,8,1 + [ X_1,8,1 * T_1,1 - X_1,8,1 * T_8,1 ] <= 0
 InTime_1,9,0: 117 X_1,9,0 + [ X_1,9,0 * T_1,0 - X_1,9,0 * T_9,0 ] <= 0
 InTime_1,9,1: 117 X_1,9,1 + [ X_1,9,1 * T_1,1 - X_1,9,1 * T_9,1 ] <= 0
 InTime_2,0,0: 110 X_2,0,0 + [ - X_2,0,0 * T_0,0 + X_2,0,0 * T_2,0 ] <= 0
 InTime_2,0,1: 110 X_2,0,1 + [ - X_2,0,1 * T_0,1 + X_2,0,1 * T_2,1 ] <= 0
 InTime_2,1,0: 98 X_2,1,0 + [ - X_2,1,0 * T_1,0 + X_2,1,0 * T_2,0 ] <= 0
 InTime_2,1,1: 98 X_2,1,1 + [ - X_2,1,1 * T_1,1 + X_2,1,1 * T_2,1 ] <= 0
 InTime_2,2,0: 90 X_2,2,0 + [ ] <= 0
 InTime_2,2,1: 90 X_2,2,1 + [ ] <= 0
 InTime_2,3,0: 107 X_2,3,0 + [ X_2,3,0 * T_2,0 - X_2,3,0 * T_3,0 ] <= 0
 InTime_2,3,1: 107 X_2,3,1 + [ X_2,3,1 * T_2,1 - X_2,3,1 * T_3,1 ] <= 0
 InTime_2,4,0: 105 X_2,4,0 + [ X_2,4,0 * T_2,0 - X_2,4,0 * T_4,0 ] <= 0
 InTime_2,4,1: 105 X_2,4,1 + [ X_2,4,1 * T_2,1 - X_2,4,1 * T_4,1 ] <= 0
 InTime_2,5,0: 95 X_2,5,0 + [ X_2,5,0 * T_2,0 - X_2,5,0 * T_5,0 ] <= 0
 InTime_2,5,1: 95 X_2,5,1 + [ X_2,5,1 * T_2,1 - X_2,5,1 * T_5,1 ] <= 0
 InTime_2,6,0: 130 X_2,6,0 + [ X_2,6,0 * T_2,0 - X_2,6,0 * T_6,0 ] <= 0
 InTime_2,6,1: 130 X_2,6,1 + [ X_2,6,1 * T_2,1 - X_2,6,1 * T_6,1 ] <= 0
 InTime_2,7,0: 103 X_2,7,0 + [ X_2,7,0 * T_2,0 - X_2,7,0 * T_7,0 ] <= 0
 InTime_2,7,1: 103 X_2,7,1 + [ X_2,7,1 * T_2,1 - X_2,7,1 * T_7,1 ] <= 0
 InTime_2,8,0: 104 X_2,8,0 + [ X_2,8,0 * T_2,0 - X_2,8,0 * T_8,0 ] <= 0
 InTime_2,8,1: 104 X_2,8,1 + [ X_2,8,1 * T_2,1 - X_2,8,1 * T_8,1 ] <= 0
 InTime_2,9,0: 110 X_2,9,0 + [ X_2,9,0 * T_2,0 - X_2,9,0 * T_9,0 ] <= 0
 InTime_2,9,1: 110 X_2,9,1 + [ X_2,9,1 * T_2,1 - X_2,9,1 * T_9,1 ] <= 0
 InTime_3,0,0: 119 X_3,0,0 + [ - X_3,0,0 * T_0,0 + X_3,0,0 * T_3,0 ] <= 0
 InTime_3,0,1: 119 X_3,0,1 + [ - X_3,0,1 * T_0,1 + X_3,0,1 * T_3,1 ] <= 0
 InTime_3,1,0: 101 X_3,1,0 + [ - X_3,1,0 * T_1,0 + X_3,1,0 * T_3,0 ] <= 0
 InTime_3,1,1: 101 X_3,1,1 + [ - X_3,1,1 * T_1,1 + X_3,1,1 * T_3,1 ] <= 0
 InTime_3,2,0: 107 X_3,2,0 + [ - X_3,2,0 * T_2,0 + X_3,2,0 * T_3,0 ] <= 0
 InTime_3,2,1: 107 X_3,2,1 + [ - X_3,2,1 * T_2,1 + X_3,2,1 * T_3,1 ] <= 0
 InTime_3,3,0: 90 X_3,3,0 + [ ] <= 0
 InTime_3,3,1: 90 X_3,3,1 + [ ] <= 0
 InTime_3,4,0: 93 X_3,4,0 + [ X_3,4,0 * T_3,0 - X_3,4,0 * T_4,0 ] <= 0
 InTime_3,4,1: 93 X_3,4,1 + [ X_3,4,1 * T_3,1 - X_3,4,1 * T_4,1 ] <= 0
 InTime_3,5,0: 110 X_3,5,0 + [ X_3,5,0 * T_3,0 - X_3,5,0 * T_5,0 ] <= 0
 InTime_3,5,1: 110 X_3,5,1 + [ X_3,5,1 * T_3,1 - X_3,5,1 * T_5,1 ] <= 0
 InTime_3,6,0: 143 X_3,6,0 + [ X_3,6,0 * T_3,0 - X_3,6,0 * T_6,0 ] <= 0
 InTime_3,6,1: 143 X_3,6,1 + [ X_3,6,1 * T_3,1 - X_3,6,1 * T_6,1 ] <= 0
 InTime_3,7,0: 94 X_3,7,0 + [ X_3,7,0 * T_3,0 - X_3,7,0 * T_7,0 ] <= 0
 InTime_3,7,1: 94 X_3,7,1 + [ X_3,7,1 * T_3,1 - X_3,7,1 * T_7,1 ] <= 0
 InTime_3,8,0: 119 X_3,8,0 + [ X_3,8,0 * T_3,0 - X_3,8,0 * T_8,0 ] <= 0
 InTime_3,8,1: 119 X_3,8,1 + [ X_3,8,1 * T_3,1 - X_3,8,1 * T_8,1 ] <= 0
 InTime_3,9,0: 119 X_3,9,0 + [ X_3,9,0 * T_3,0 - X_3,9,0 * T_9,0 ] <= 0
 InTime_3,9,1: 119 X_3,9,1 + [ X_3,9,1 * T_3,1 - X_3,9,1 * T_9,1 ] <= 0
 InTime_4,0,0: 115 X_4,0,0 + [ - X_4,0,0 * T_0,0 + X_4,0,0 * T_4,0 ] <= 0
 InTime_4,0,1: 115 X_4,0,1 + [ - X_4,0,1 * T_0,1 + X_4,0,1 * T_4,1 ] <= 0
 InTime_4,1,0: 102 X_4,1,0 + [ - X_4,1,0 * T_1,0 + X_4,1,0 * T_4,0 ] <= 0
 InTime_4,1,1: 102 X_4,1,1 + [ - X_4,1,1 * T_1,1 + X_4,1,1 * T_4,1 ] <= 0
 InTime_4,2,0: 105 X_4,2,0 + [ - X_4,2,0 * T_2,0 + X_4,2,0 * T_4,0 ] <= 0
 InTime_4,2,1: 105 X_4,2,1 + [ - X_4,2,1 * T_2,1 + X_4,2,1 * T_4,1 ] <= 0
 InTime_4,3,0: 93 X_4,3,0 + [ - X_4,3,0 * T_3,0 + X_4,3,0 * T_4,0 ] <= 0
 InTime_4,3,1: 93 X_4,3,1 + [ - X_4,3,1 * T_3,1 + X_4,3,1 * T_4,1 ] <= 0
 InTime_4,4,0: 90 X_4,4,0 + [ ] <= 0
 InTime_4,4,1: 90 X_4,4,1 + [ ] <= 0
 InTime_4,5,0: 108 X_4,5,0 + [ X_4,5,0 * T_4,0 - X_4,5,0 * T_5,0 ] <= 0
 InTime_4,5,1: 108 X_4,5,1 + [ X_4,5,1 * T_4,1 - X_4,5,1 * T_5,1 ] <= 0
 InTime_4,6,0: 140 X_4,6,0 + [ X_4,6,0 * T_4,0 - X_4,6,0 * T_6,0 ] <= 0
 InTime_4,6,1: 140 X_4,6,1 + [ X_4,6,1 * T_4,1 - X_4,6,1 * T_6,1 ] <= 0
 InTime_4,7,0: 94 X_4,7,0 + [ X_4,7,0 * T_4,0 - X_4,7,0 * T_7,0 ] <= 0
 InTime_4,7,1: 94 X_4,7,1 + [ X_4,7,1 * T_4,1 - X_4,7,1 * T_7,1 ] <= 0
 InTime_4,8,0: 116 X_4,8,0 + [ X_4,8,0 * T_4,0 - X_4,8,0 * T_8,0 ] <= 0
 InTime_4,8,1: 116 X_4,8,1 + [ X_4,8,1 * T_4,1 - X_4,8,1 * T_8,1 ] <= 0
 InTime_4,9,0: 115 X_4,9,0 + [ X_4,9,0 * T_4,0 - X_4,9,0 * T_9,0 ] <= 0
 InTime_4,9,1: 115 X_4,9,1 + [ X_4,9,1 * T_4,1 - X_4,9,1 * T_9,1 ] <= 0
 InTime_5,0,0: 105 X_5,0,0 + [ - X_5,0,0 * T_0,0 + X_5,0,0 * T_5,0 ] <= 0
 InTime_5,0,1: 105 X_5,0,1 + [ - X_5,0,1 * T_0,1 + X_5,0,1 * T_5,1 ] <= 0
 InTime_5,1,0: 104 X_5,1,0 + [ - X_5,1,0 * T_1,0 + X_5,1,0 * T_5,0 ] <= 0
 InTime_5,1,1: 104 X_5,1,1 + [ - X_5,1,1 * T_1,1 + X_5,1,1 * T_5,1 ] <= 0
 InTime_5,2,0: 95 X_5,2,0 + [ - X_5,2,0 * T_2,0 + X_5,2,0 * T_5,0 ] <= 0
 InTime_5,2,1: 95 X_5,2,1 + [ - X_5,2,1 * T_2,1 + X_5,2,1 * T_5,1 ] <= 0
 InTime_5,3,0: 110 X_5,3,0 + [ - X_5,3,0 * T_3,0 + X_5,3,0 * T_5,0 ] <= 0
 InTime_5,3,1: 110 X_5,3,1 + [ - X_5,3,1 * T_3,1 + X_5,3,1 * T_5,1 ] <= 0
 InTime_5,4,0: 108 X_5,4,0 + [ - X_5,4,0 * T_4,0 + X_5,4,0 * T_5,0 ] <= 0
 InTime_5,4,1: 108 X_5,4,1 + [ - X_5,4,1 * T_4,1 + X_5,4,1 * T_5,1 ] <= 0
 InTime_5,5,0: 90 X_5,5,0 + [ ] <= 0
 InTime_5,5,1: 90 X_5,5,1 + [ ] <= 0
 InTime_5,6,0: 124 X_5,6,0 + [ X_5,6,0 * T_5,0 - X_5,6,0 * T_6,0 ] <= 0
 InTime_5,6,1: 124 X_5,6,1 + [ X_5,6,1 * T_5,1 - X_5,6,1 * T_6,1 ] <= 0
 InTime_5,7,0: 106 X_5,7,0 + [ X_5,7,0 * T_5,0 - X_5,7,0 * T_7,0 ] <= 0
 InTime_5,7,1: 106 X_5,7,1 + [ X_5,7,1 * T_5,1 - X_5,7,1 * T_7,1 ] <= 0
 InTime_5,8,0: 99 X_5,8,0 + [ X_5,8,0 * T_5,0 - X_5,8,0 * T_8,0 ] <= 0
 InTime_5,8,1: 99 X_5,8,1 + [ X_5,8,1 * T_5,1 - X_5,8,1 * T_8,1 ] <= 0
 InTime_5,9,0: 105 X_5,9,0 + [ X_5,9,0 * T_5,0 - X_5,9,0 * T_9,0 ] <= 0
 InTime_5,9,1: 105 X_5,9,1 + [ X_5,9,1 * T_5,1 - X_5,9,1 * T_9,1 ] <= 0
 InTime_6,0,0: 115 X_6,0,0 + [ - X_6,0,0 * T_0,0 + X_6,0,0 * T_6,0 ] <= 0
 InTime_6,0,1: 115 X_6,0,1 + [ - X_6,0,1 * T_0,1 + X_6,0,1 * T_6,1 ] <= 0
 InTime_6,1,0: 138 X_6,1,0 + [ - X_6,1,0 * T_1,0 + X_6,1,0 * T_6,0 ] <= 0
 InTime_6,1,1: 138 X_6,1,1 + [ - X_6,1,1 * T_1,1 + X_6,1,1 * T_6,1 ] <= 0
 InTime_6,2,0: 130 X_6,2,0 + [ - X_6,2,0 * T_2,0 + X_6,2,0 * T_6,0 ] <= 0
 InTime_6,2,1: 130 X_6,2,1 + [ - X_6,2,1 * T_2,1 + X_6,2,1 * T_6,1 ] <= 0
 InTime_6,3,0: 143 X_6,3,0 + [ - X_6,3,0 * T_3,0 + X_6,3,0 * T_6,0 ] <= 0
 InTime_6,3,1: 143 X_6,3,1 + [ - X_6,3,1 * T_3,1 + X_6,3,1 * T_6,1 ] <= 0
 InTime_6,4,0: 140 X_6,4,0 + [ - X_6,4,0 * T_4,0 + X_6,4,0 * T_6,0 ] <= 0
 InTime_6,4,1: 140 X_6,4,1 + [ - X_6,4,1 * T_4,1 + X_6,4,1 * T_6,1 ] <= 0
 InTime_6,5,0: 124 X_6,5,0 + [ - X_6,5,0 * T_5,0 + X_6,5,0 * T_6,0 ] <= 0
 InTime_6,5,1: 124 X_6,5,1 + [ - X_6,5,1 * T_5,1 + X_6,5,1 * T_6,1 ] <= 0
 InTime_6,6,0: 90 X_6,6,0 + [ ] <= 0
 InTime_6,6,1: 90 X_6,6,1 + [ ] <= 0
 InTime_6,7,0: 140 X_6,7,0 + [ X_6,7,0 * T_6,0 - X_6,7,0 * T_7,0 ] <= 0
 InTime_6,7,1: 140 X_6,7,1 + [ X_6,7,1 * T_6,1 - X_6,7,1 * T_7,1 ] <= 0
 InTime_6,8,0: 115 X_6,8,0 + [ X_6,8,0 * T_6,0 - X_6,8,0 * T_8,0 ] <= 0
 InTime_6,8,1: 115 X_6,8,1 + [ X_6,8,1 * T_6,1 - X_6,8,1 * T_8,1 ] <= 0
 InTime_6,9,0: 115 X_6,9,0 + [ X_6,9,0 * T_6,0 - X_6,9,0 * T_9,0 ] <= 0
 InTime_6,9,1: 115 X_6,9,1 + [ X_6,9,1 * T_6,1 - X_6,9,1 * T_9,1 ] <= 0
 InTime_7,0,0: 116 X_7,0,0 + [ - X_7,0,0 * T_0,0 + X_7,0,0 * T_7,0 ] <= 0
 InTime_7,0,1: 116 X_7,0,1 + [ - X_7,0,1 * T_0,1 + X_7,0,1 * T_7,1 ] <= 0
 InTime_7,1,0: 97 X_7,1,0 + [ - X_7,1,0 * T_1,0 + X_7,1,0 * T_7,0 ] <= 0
 InTime_7,1,1: 97 X_7,1,1 + [ - X_7,1,1 * T_1,1 + X_7,1,1 * T_7,1 ] <= 0
 InTime_7,2,0: 103 X_7,2,0 + [ - X_7,2,0 * T_2,0 + X_7,2,0 * T_7,0 ] <= 0
 InTime_7,2,1: 103 X_7,2,1 + [ - X_7,2,1 * T_2,1 + X_7,2,1 * T_7,1 ] <= 0
 InTime_7,3,0: 94 X_7,3,0 + [ - X_7,3,0 * T_3,0 + X_7,3,0 * T_7,0 ] <= 0
 InTime_7,3,1: 94 X_7,3,1 + [ - X_7,3,1 * T_3,1 + X_7,3,1 * T_7,1 ] <= 0
 InTime_7,4,0: 94 X_7,4,0 + [ - X_7,4,0 * T_4,0 + X_7,4,0 * T_7,0 ] <= 0
 InTime_7,4,1: 94 X_7,4,1 + [ - X_7,4,1 * T_4,1 + X_7,4,1 * T_7,1 ] <= 0
 InTime_7,5,0: 106 X_7,5,0 + [ - X_7,5,0 * T_5,0 + X_7,5,0 * T_7,0 ] <= 0
 InTime_7,5,1: 106 X_7,5,1 + [ - X_7,5,1 * T_5,1 + X_7,5,1 * T_7,1 ] <= 0
 InTime_7,6,0: 140 X_7,6,0 + [ - X_7,6,0 * T_6,0 + X_7,6,0 * T_7,0 ] <= 0
 InTime_7,6,1: 140 X_7,6,1 + [ - X_7,6,1 * T_6,1 + X_7,6,1 * T_7,1 ] <= 0
 InTime_7,7,0: 90 X_7,7,0 + [ ] <= 0
 InTime_7,7,1: 90 X_7,7,1 + [ ] <= 0
 InTime_7,8,0: 116 X_7,8,0 + [ X_7,8,0 * T_7,0 - X_7,8,0 * T_8,0 ] <= 0
 InTime_7,8,1: 116 X_7,8,1 + [ X_7,8,1 * T_7,1 - X_7,8,1 * T_8,1 ] <= 0
 InTime_7,9,0: 116 X_7,9,0 + [ X_7,9,0 * T_7,0 - X_7,9,0 * T_9,0 ] <= 0
 InTime_7,9,1: 116 X_7,9,1 + [ X_7,9,1 * T_7,1 - X_7,9,1 * T_9,1 ] <= 0
 InTime_8,0,0: 101 X_8,0,0 + [ - X_8,0,0 * T_0,0 + X_8,0,0 * T_8,0 ] <= 0
 InTime_8,0,1: 101 X_8,0,1 + [ - X_8,0,1 * T_0,1 + X_8,0,1 * T_8,1 ] <= 0
 InTime_8,1,0: 113 X_8,1,0 + [ - X_8,1,0 * T_1,0 + X_8,1,0 * T_8,0 ] <= 0
 InTime_8,1,1: 113 X_8,1,1 + [ - X_8,1,1 * T_1,1 + X_8,1,1 * T_8,1 ] <= 0
 InTime_8,2,0: 104 X_8,2,0 + [ - X_8,2,0 * T_2,0 + X_8,2,0 * T_8,0 ] <= 0
 InTime_8,2,1: 104 X_8,2,1 + [ - X_8,2,1 * T_2,1 + X_8,2,1 * T_8,1 ] <= 0
 InTime_8,3,0: 119 X_8,3,0 + [ - X_8,3,0 * T_3,0 + X_8,3,0 * T_8,0 ] <= 0
 InTime_8,3,1: 119 X_8,3,1 + [ - X_8,3,1 * T_3,1 + X_8,3,1 * T_8,1 ] <= 0
 InTime_8,4,0: 116 X_8,4,0 + [ - X_8,4,0 * T_4,0 + X_8,4,0 * T_8,0 ] <= 0
 InTime_8,4,1: 116 X_8,4,1 + [ - X_8,4,1 * T_4,1 + X_8,4,1 * T_8,1 ] <= 0
 InTime_8,5,0: 99 X_8,5,0 + [ - X_8,5,0 * T_5,0 + X_8,5,0 * T_8,0 ] <= 0
 InTime_8,5,1: 99 X_8,5,1 + [ - X_8,5,1 * T_5,1 + X_8,5,1 * T_8,1 ] <= 0
 InTime_8,6,0: 115 X_8,6,0 + [ - X_8,6,0 * T_6,0 + X_8,6,0 * T_8,0 ] <= 0
 InTime_8,6,1: 115 X_8,6,1 + [ - X_8,6,1 * T_6,1 + X_8,6,1 * T_8,1 ] <= 0
 InTime_8,7,0: 116 X_8,7,0 + [ - X_8,7,0 * T_7,0 + X_8,7,0 * T_8,0 ] <= 0
 InTime_8,7,1: 116 X_8,7,1 + [ - X_8,7,1 * T_7,1 + X_8,7,1 * T_8,1 ] <= 0
 InTime_8,8,0: 90 X_8,8,0 + [ ] <= 0
 InTime_8,8,1: 90 X_8,8,1 + [ ] <= 0
 InTime_8,9,0: 101 X_8,9,0 + [ X_8,9,0 * T_8,0 - X_8,9,0 * T_9,0 ] <= 0
 InTime_8,9,1: 101 X_8,9,1 + [ X_8,9,1 * T_8,1 - X_8,9,1 * T_9,1 ] <= 0
 InTime_9,0,0: [ - X_9,0,0 * T_0,0 + X_9,0,0 * T_9,0 ] <= 0
 InTime_9,0,1: [ - X_9,0,1 * T_0,1 + X_9,0,1 * T_9,1 ] <= 0
 InTime_9,1,0: 27 X_9,1,0 + [ - X_9,1,0 * T_1,0 + X_9,1,0 * T_9,0 ] <= 0
 InTime_9,1,1: 27 X_9,1,1 + [ - X_9,1,1 * T_1,1 + X_9,1,1 * T_9,1 ] <= 0
 InTime_9,2,0: 20 X_9,2,0 + [ - X_9,2,0 * T_2,0 + X_9,2,0 * T_9,0 ] <= 0
 InTime_9,2,1: 20 X_9,2,1 + [ - X_9,2,1 * T_2,1 + X_9,2,1 * T_9,1 ] <= 0
 InTime_9,3,0: 29 X_9,3,0 + [ - X_9,3,0 * T_3,0 + X_9,3,0 * T_9,0 ] <= 0
 InTime_9,3,1: 29 X_9,3,1 + [ - X_9,3,1 * T_3,1 + X_9,3,1 * T_9,1 ] <= 0
 InTime_9,4,0: 25 X_9,4,0 + [ - X_9,4,0 * T_4,0 + X_9,4,0 * T_9,0 ] <= 0
 InTime_9,4,1: 25 X_9,4,1 + [ - X_9,4,1 * T_4,1 + X_9,4,1 * T_9,1 ] <= 0
 InTime_9,5,0: 15 X_9,5,0 + [ - X_9,5,0 * T_5,0 + X_9,5,0 * T_9,0 ] <= 0
 InTime_9,5,1: 15 X_9,5,1 + [ - X_9,5,1 * T_5,1 + X_9,5,1 * T_9,1 ] <= 0
 InTime_9,6,0: 25 X_9,6,0 + [ - X_9,6,0 * T_6,0 + X_9,6,0 * T_9,0 ] <= 0
 InTime_9,6,1: 25 X_9,6,1 + [ - X_9,6,1 * T_6,1 + X_9,6,1 * T_9,1 ] <= 0
 InTime_9,7,0: 26 X_9,7,0 + [ - X_9,7,0 * T_7,0 + X_9,7,0 * T_9,0 ] <= 0
 InTime_9,7,1: 26 X_9,7,1 + [ - X_9,7,1 * T_7,1 + X_9,7,1 * T_9,1 ] <= 0
 InTime_9,8,0: 11 X_9,8,0 + [ - X_9,8,0 * T_8,0 + X_9,8,0 * T_9,0 ] <= 0
 InTime_9,8,1: 11 X_9,8,1 + [ - X_9,8,1 * T_8,1 + X_9,8,1 * T_9,1 ] <= 0
 InTime_9,9,0: [ ] <= 0
 InTime_9,9,1: [ ] <= 0
Bounds
Binaries
 X_0,0,0 X_0,0,1 X_0,1,0 X_0,1,1 X_0,2,0 X_0,2,1 X_0,3,0 X_0,3,1 X_0,4,0
 X_0,4,1 X_0,5,0 X_0,5,1 X_0,6,0 X_0,6,1 X_0,7,0 X_0,7,1 X_0,8,0 X_0,8,1
 X_0,9,0 X_0,9,1 X_1,0,0 X_1,0,1 X_1,1,0 X_1,1,1 X_1,2,0 X_1,2,1 X_1,3,0
 X_1,3,1 X_1,4,0 X_1,4,1 X_1,5,0 X_1,5,1 X_1,6,0 X_1,6,1 X_1,7,0 X_1,7,1
 X_1,8,0 X_1,8,1 X_1,9,0 X_1,9,1 X_2,0,0 X_2,0,1 X_2,1,0 X_2,1,1 X_2,2,0
 X_2,2,1 X_2,3,0 X_2,3,1 X_2,4,0 X_2,4,1 X_2,5,0 X_2,5,1 X_2,6,0 X_2,6,1
 X_2,7,0 X_2,7,1 X_2,8,0 X_2,8,1 X_2,9,0 X_2,9,1 X_3,0,0 X_3,0,1 X_3,1,0
 X_3,1,1 X_3,2,0 X_3,2,1 X_3,3,0 X_3,3,1 X_3,4,0 X_3,4,1 X_3,5,0 X_3,5,1
 X_3,6,0 X_3,6,1 X_3,7,0 X_3,7,1 X_3,8,0 X_3,8,1 X_3,9,0 X_3,9,1 X_4,0,0
 X_4,0,1 X_4,1,0 X_4,1,1 X_4,2,0 X_4,2,1 X_4,3,0 X_4,3,1 X_4,4,0 X_4,4,1
 X_4,5,0 X_4,5,1 X_4,6,0 X_4,6,1 X_4,7,0 X_4,7,1 X_4,8,0 X_4,8,1 X_4,9,0
 X_4,9,1 X_5,0,0 X_5,0,1 X_5,1,0 X_5,1,1 X_5,2,0 X_5,2,1 X_5,3,0 X_5,3,1
 X_5,4,0 X_5,4,1 X_5,5,0 X_5,5,1 X_5,6,0 X_5,6,1 X_5,7,0 X_5,7,1 X_5,8,0
 X_5,8,1 X_5,9,0 X_5,9,1 X_6,0,0 X_6,0,1 X_6,1,0 X_6,1,1 X_6,2,0 X_6,2,1
 X_6,3,0 X_6,3,1 X_6,4,0 X_6,4,1 X_6,5,0 X_6,5,1 X_6,6,0 X_6,6,1 X_6,7,0
 X_6,7,1 X_6,8,0 X_6,8,1 X_6,9,0 X_6,9,1 X_7,0,0 X_7,0,1 X_7,1,0 X_7,1,1
 X_7,2,0 X_7,2,1 X_7,3,0 X_7,3,1 X_7,4,0 X_7,4,1 X_7,5,0 X_7,5,1 X_7,6,0
 X_7,6,1 X_7,7,0 X_7,7,1 X_7,8,0 X_7,8,1 X_7,9,0 X_7,9,1 X_8,0,0 X_8,0,1
 X_8,1,0 X_8,1,1 X_8,2,0 X_8,2,1 X_8,3,0 X_8,3,1 X_8,4,0 X_8,4,1 X_8,5,0
 X_8,5,1 X_8,6,0 X_8,6,1 X_8,7,0 X_8,7,1 X_8,8,0 X_8,8,1 X_8,9,0 X_8,9,1
 X_9,0,0 X_9,0,1 X_9,1,0 X_9,1,1 X_9,2,0 X_9,2,1 X_9,3,0 X_9,3,1 X_9,4,0
 X_9,4,1 X_9,5,0 X_9,5,1 X_9,6,0 X_9,6,1 X_9,7,0 X_9,7,1 X_9,8,0 X_9,8,1
 X_9,9,0 X_9,9,1 Z_0,0 Z_0,1 Z_1,0 Z_1,1 Z_2,0 Z_2,1 Z_3,0 Z_3,1 Z_4,0
 Z_4,1 Z_5,0 Z_5,1 Z_6,0 Z_6,1 Z_7,0 Z_7,1 Z_8,0 Z_8,1 Z_9,0 Z_9,1 Y_1,0,0
 Y_1,0,1 Y_1,1,0 Y_1,1,1 Y_1,2,0 Y_1,2,1 Y_2,0,0 Y_2,0,1 Y_2,1,0 Y_2,1,1
 Y_2,2,0 Y_2,2,1 Y_3,0,0 Y_3,0,1 Y_3,1,0 Y_3,1,1 Y_3,2,0 Y_3,2,1 Y_4,0,0
 Y_4,0,1 Y_4,1,0 Y_4,1,1 Y_4,2,0 Y_4,2,1 Y_5,0,0 Y_5,0,1 Y_5,1,0 Y_5,1,1
 Y_5,2,0 Y_5,2,1 Y_6,0,0 Y_6,0,1 Y_6,1,0 Y_6,1,1 Y_6,2,0 Y_6,2,1 Y_7,0,0
 Y_7,0,1 Y_7,1,0 Y_7,1,1 Y_7,2,0 Y_7,2,1 Y_8,0,0 Y_8,0,1 Y_8,1,0 Y_8,1,1
 Y_8,2,0 Y_8,2,1
End
