VRPModelTW.sol
# Solution for model VRPmodel_MultiTW
# Objective value = 1.5695308891849874e+02
X_0,0,0 1
X_0,0,1 0
X_0,0,2 0
X_0,1,0 0
X_0,1,1 0
X_0,1,2 0
X_0,2,0 0
X_0,2,1 0
X_0,2,2 0
X_0,3,0 0
X_0,3,1 0
X_0,3,2 0
X_0,4,0 0
X_0,4,1 0
X_0,4,2 1
X_0,5,0 0
X_0,5,1 1
X_0,5,2 0
X_0,6,0 0
X_0,6,1 0
X_0,6,2 0
X_0,7,0 0
X_0,7,1 0
X_0,7,2 0
X_0,8,0 0
X_0,8,1 0
X_0,8,2 0
X_0,9,0 0
X_0,9,1 0
X_0,9,2 0
X_1,0,0 0
X_1,0,1 0
X_1,0,2 0
X_1,1,0 0
X_1,1,1 0
X_1,1,2 0
X_1,2,0 0
X_1,2,1 0
X_1,2,2 1
X_1,3,0 0
X_1,3,1 0
X_1,3,2 0
X_1,4,0 0
X_1,4,1 0
X_1,4,2 0
X_1,5,0 0
X_1,5,1 0
X_1,5,2 0
X_1,6,0 0
X_1,6,1 0
X_1,6,2 0
X_1,7,0 0
X_1,7,1 0
X_1,7,2 0
X_1,8,0 0
X_1,8,1 0
X_1,8,2 0
X_1,9,0 0
X_1,9,1 0
X_1,9,2 0
X_2,0,0 0
X_2,0,1 0
X_2,0,2 0
X_2,1,0 0
X_2,1,1 0
X_2,1,2 0
X_2,2,0 0
X_2,2,1 0
X_2,2,2 0
X_2,3,0 0
X_2,3,1 0
X_2,3,2 0
X_2,4,0 0
X_2,4,1 0
X_2,4,2 0
X_2,5,0 0
X_2,5,1 0
X_2,5,2 0
X_2,6,0 0
X_2,6,1 0
X_2,6,2 0
X_2,7,0 0
X_2,7,1 0
X_2,7,2 0
X_2,8,0 0
X_2,8,1 1
X_2,8,2 0
X_2,9,0 0
X_2,9,1 0
X_2,9,2 1
X_3,0,0 0
X_3,0,1 0
X_3,0,2 0
X_3,1,0 0
X_3,1,1 0
X_3,1,2 0
X_3,2,0 0
X_3,2,1 0
X_3,2,2 0
X_3,3,0 0
X_3,3,1 0
X_3,3,2 0
X_3,4,0 0
X_3,4,1 0
X_3,4,2 0
X_3,5,0 0
X_3,5,1 0
X_3,5,2 0
X_3,6,0 0
X_3,6,1 0
X_3,6,2 0
X_3,7,0 0
X_3,7,1 0
X_3,7,2 1
X_3,8,0 0
X_3,8,1 0
X_3,8,2 0
X_3,9,0 0
X_3,9,1 0
X_3,9,2 0
X_4,0,0 0
X_4,0,1 0
X_4,0,2 0
X_4,1,0 0
X_4,1,1 0
X_4,1,2 0
X_4,2,0 0
X_4,2,1 0
X_4,2,2 0
X_4,3,0 0
X_4,3,1 0
X_4,3,2 1
X_4,4,0 0
X_4,4,1 0
X_4,4,2 0
X_4,5,0 0
X_4,5,1 0
X_4,5,2 0
X_4,6,0 0
X_4,6,1 0
X_4,6,2 0
X_4,7,0 0
X_4,7,1 0
X_4,7,2 0
X_4,8,0 0
X_4,8,1 0
X_4,8,2 0
X_4,9,0 0
X_4,9,1 0
X_4,9,2 0
X_5,0,0 0
X_5,0,1 0
X_5,0,2 0
X_5,1,0 0
X_5,1,1 0
X_5,1,2 0
X_5,2,0 0
X_5,2,1 1
X_5,2,2 0
X_5,3,0 0
X_5,3,1 0
X_5,3,2 0
X_5,4,0 0
X_5,4,1 0
X_5,4,2 0
X_5,5,0 0
X_5,5,1 0
X_5,5,2 0
X_5,6,0 0
X_5,6,1 0
X_5,6,2 0
X_5,7,0 0
X_5,7,1 0
X_5,7,2 0
X_5,8,0 0
X_5,8,1 0
X_5,8,2 0
X_5,9,0 0
X_5,9,1 0
X_5,9,2 0
X_6,0,0 0
X_6,0,1 0
X_6,0,2 0
X_6,1,0 0
X_6,1,1 0
X_6,1,2 0
X_6,2,0 0
X_6,2,1 0
X_6,2,2 0
X_6,3,0 0
X_6,3,1 0
X_6,3,2 0
X_6,4,0 0
X_6,4,1 0
X_6,4,2 0
X_6,5,0 0
X_6,5,1 0
X_6,5,2 0
X_6,6,0 0
X_6,6,1 0
X_6,6,2 0
X_6,7,0 0
X_6,7,1 0
X_6,7,2 0
X_6,8,0 0
X_6,8,1 0
X_6,8,2 0
X_6,9,0 0
X_6,9,1 1
X_6,9,2 0
X_7,0,0 0
X_7,0,1 0
X_7,0,2 0
X_7,1,0 0
X_7,1,1 0
X_7,1,2 1
X_7,2,0 0
X_7,2,1 0
X_7,2,2 0
X_7,3,0 0
X_7,3,1 0
X_7,3,2 0
X_7,4,0 0
X_7,4,1 0
X_7,4,2 0
X_7,5,0 0
X_7,5,1 0
X_7,5,2 0
X_7,6,0 0
X_7,6,1 0
X_7,6,2 0
X_7,7,0 0
X_7,7,1 0
X_7,7,2 0
X_7,8,0 0
X_7,8,1 0
X_7,8,2 0
X_7,9,0 0
X_7,9,1 0
X_7,9,2 0
X_8,0,0 0
X_8,0,1 0
X_8,0,2 0
X_8,1,0 0
X_8,1,1 0
X_8,1,2 0
X_8,2,0 0
X_8,2,1 0
X_8,2,2 0
X_8,3,0 0
X_8,3,1 0
X_8,3,2 0
X_8,4,0 0
X_8,4,1 0
X_8,4,2 0
X_8,5,0 0
X_8,5,1 0
X_8,5,2 0
X_8,6,0 0
X_8,6,1 1
X_8,6,2 0
X_8,7,0 0
X_8,7,1 0
X_8,7,2 0
X_8,8,0 0
X_8,8,1 0
X_8,8,2 0
X_8,9,0 0
X_8,9,1 0
X_8,9,2 0
X_9,0,0 0
X_9,0,1 0
X_9,0,2 0
X_9,1,0 0
X_9,1,1 0
X_9,1,2 0
X_9,2,0 0
X_9,2,1 0
X_9,2,2 0
X_9,3,0 0
X_9,3,1 0
X_9,3,2 0
X_9,4,0 0
X_9,4,1 0
X_9,4,2 0
X_9,5,0 0
X_9,5,1 0
X_9,5,2 0
X_9,6,0 0
X_9,6,1 0
X_9,6,2 0
X_9,7,0 0
X_9,7,1 0
X_9,7,2 0
X_9,8,0 0
X_9,8,1 0
X_9,8,2 0
X_9,9,0 1
X_9,9,1 0
X_9,9,2 0
Z_0,0 1
Z_0,1 0
Z_0,2 0
Z_1,0 0
Z_1,1 0
Z_1,2 1
Z_2,0 0
Z_2,1 1
Z_2,2 1
Z_3,0 0
Z_3,1 0
Z_3,2 1
Z_4,0 0
Z_4,1 0
Z_4,2 1
Z_5,0 0
Z_5,1 1
Z_5,2 0
Z_6,0 0
Z_6,1 1
Z_6,2 0
Z_7,0 0
Z_7,1 0
Z_7,2 1
Z_8,0 0
Z_8,1 1
Z_8,2 0
Z_9,0 1
Z_9,1 1
Z_9,2 1
T_0,0 0
T_0,1 0
T_0,2 0
T_1,0 0
T_1,1 0
T_1,2 4.5849945075430844e+02
T_2,0 0
T_2,1 2.1371871671464328e+02
T_2,2 2.7111119523042512e+03
T_3,0 0
T_3,1 0
T_3,2 2.4651864489916807e+02
T_4,0 0
T_4,1 0
T_4,2 1.4078424930939917e+02
T_5,0 0
T_5,1 85.4350479860464
T_5,2 0
T_6,0 0
T_6,1 5.9829224489858655e+02
T_6,2 0
T_7,0 0
T_7,1 0
T_7,2 3.5064278750768904e+02
T_8,0 0
T_8,1 3.5269114004766385e+02
T_8,2 0
T_9,0 0
T_9,1 2.1130323055859403e+03
T_9,2 3.0758695859972886e+03
F_0,0 0
F_0,1 0
F_0,2 0
F_1,0 0
F_1,1 0
F_1,2 1
F_2,0 0
F_2,1 0.50000000000003
F_2,2 5.0000000000002975e-01
F_3,0 0
F_3,1 0
F_3,2 1
F_4,0 0
F_4,1 0
F_4,2 1
F_5,0 0
F_5,1 1
F_5,2 0
F_6,0 0
F_6,1 1
F_6,2 0
F_7,0 0
F_7,1 0
F_7,2 1
F_8,0 0
F_8,1 1
F_8,2 0
F_9,0 0
F_9,1 0
F_9,2 0
Y_0,0,0 0
Y_0,0,1 0
Y_0,0,2 0
Y_0,1,0 0
Y_0,1,1 0
Y_0,1,2 0
Y_0,2,0 1
Y_0,2,1 0
Y_0,2,2 0
Y_1,0,0 0
Y_1,0,1 0
Y_1,0,2 1
Y_1,1,0 0
Y_1,1,1 0
Y_1,1,2 0
Y_1,2,0 0
Y_1,2,1 0
Y_1,2,2 0
Y_2,0,0 0
Y_2,0,1 1
Y_2,0,2 0
Y_2,1,0 0
Y_2,1,1 0
Y_2,1,2 0
Y_2,2,0 0
Y_2,2,1 0
Y_2,2,2 1
Y_3,0,0 0
Y_3,0,1 0
Y_3,0,2 0
Y_3,1,0 0
Y_3,1,1 0
Y_3,1,2 1
Y_3,2,0 0
Y_3,2,1 0
Y_3,2,2 0
Y_4,0,0 0
Y_4,0,1 0
Y_4,0,2 0
Y_4,1,0 0
Y_4,1,1 0
Y_4,1,2 1
Y_4,2,0 0
Y_4,2,1 0
Y_4,2,2 0
Y_5,0,0 0
Y_5,0,1 1
Y_5,0,2 0
Y_5,1,0 0
Y_5,1,1 0
Y_5,1,2 0
Y_5,2,0 0
Y_5,2,1 0
Y_5,2,2 0
Y_6,0,0 0
Y_6,0,1 1
Y_6,0,2 0
Y_6,1,0 0
Y_6,1,1 0
Y_6,1,2 0
Y_6,2,0 0
Y_6,2,1 0
Y_6,2,2 0
Y_7,0,0 0
Y_7,0,1 0
Y_7,0,2 0
Y_7,1,0 0
Y_7,1,1 0
Y_7,1,2 1
Y_7,2,0 0
Y_7,2,1 0
Y_7,2,2 0
Y_8,0,0 0
Y_8,0,1 0
Y_8,0,2 0
Y_8,1,0 0
Y_8,1,1 1
Y_8,1,2 0
Y_8,2,0 0
Y_8,2,1 0
Y_8,2,2 0
Y_9,0,0 1
Y_9,0,1 1
Y_9,0,2 1
Y_9,1,0 0
Y_9,1,1 0
Y_9,1,2 0
Y_9,2,0 0
Y_9,2,1 0
Y_9,2,2 0
